\ENCODING=ISO-8859-1
\Problem name: ilog.cplex

Minimize
 obj1: 103775 x1 + 106238 x2 + 95704 x3 + 101009 x4 + 105820 x5 + 96187 x6
       + 106887 x7 + 92736 x8 + 90790 x9 + 92973 x10 + 106816 x11 + 93387 x12
       + 109137 x13 + 98410 x14 + 107743 x15 + 99762 x16 + 106794 x17
       + 105241 x18 + 105366 x19 + 98588 x20 + 108182 x21 + 93355 x22
       + 108796 x23 + 106132 x24 + 90850 x25 + 93498 x26 + 100589 x27
       + 91100 x28 + 107529 x29 + 108232 x30 + 101814 x31 + 106351 x32
       + 93642 x33 + 101609 x34 + 109633 x35 + 99522 x36 + 106124 x37
       + 101425 x38 + 103032 x39 + 97826 x40 + 92858 x41 + 100883 x42
       + 96099 x43 + 108087 x44 + 91123 x45 + 100114 x46 + 97644 x47
       + 99506 x48 + 98158 x49 + 92245 x50 + 90978 x51 + 103694 x52
       + 107275 x53 + 93571 x54 + 98305 x55 + 94195 x56 + 98905 x57
       + 102864 x58 + 100454 x59 + 96012 x60 + 104591 x61 + 92884 x62
       + 108583 x63 + 90005 x64 + 103239 x65 + 95789 x66 + 97495 x67
       + 95354 x68 + 98163 x69 + 99190 x70 + 98465 x71 + 99279 x72 + 101098 x73
       + 96833 x74 + 107672 x75 + 90988 x76 + 100912 x77 + 103513 x78
       + 102783 x79 + 107176 x80 + 97645 x81 + 95254 x82 + 99609 x83
       + 107447 x84 + 105111 x85 + 109003 x86 + 90797 x87 + 91604 x88
       + 101463 x89 + 107965 x90 + 99113 x91 + 109086 x92 + 101105 x93
       + 90921 x94 + 109623 x95 + 93359 x96 + 95825 x97 + 101676 x98
       + 107420 x99 + 92200 x100 + 108236 x101 + 98295 x102 + 100549 x103
       + 98578 x104 + 96406 x105 + 90799 x106 + 91409 x107 + 96253 x108
       + 104978 x109 + 90763 x110 + 94099 x111 + 99215 x112 + 95120 x113
       + 96538 x114 + 100113 x115 + 104726 x116 + 103368 x117 + 103820 x118
       + 90194 x119 + 96014 x120 + 102557 x121 + 97796 x122 + 100666 x123
       + 94727 x124 + 93400 x125 + 107277 x126 + 109943 x127 + 97344 x128
       + 102115 x129 + 103240 x130 + 93859 x131 + 108884 x132 + 100767 x133
       + 92540 x134 + 91188 x135 + 103058 x136 + 94656 x137 + 103031 x138
       + 104983 x139 + 92543 x140 + 99606 x141 + 101362 x142 + 103832 x143
       + 96232 x144 + 109238 x145 + 91207 x146 + 95519 x147 + 108064 x148
       + 100926 x149 + 109174 x150 + 109542 x151 + 102792 x152 + 106015 x153
       + 99558 x154 + 107138 x155 + 95818 x156 + 102424 x157 + 93636 x158
       + 105281 x159 + 106555 x160 + 95887 x161 + 104419 x162 + 94611 x163
       + 97774 x164 + 99850 x165 + 93525 x166 + 90291 x167 + 97031 x168
       + 103455 x169 + 93304 x170 + 99538 x171 + 90464 x172 + 92037 x173
       + 94382 x174 + 99873 x175 + 94146 x176 + 95229 x177 + 96451 x178
       + 98108 x179 + 93669 x180 + 98714 x181 + 100035 x182 + 93358 x183
       + 101075 x184 + 106146 x185 + 97743 x186 + 101685 x187 + 95154 x188
       + 102500 x189 + 93603 x190 + 109386 x191 + 109180 x192 + 104726 x193
       + 104735 x194 + 104843 x195 + 100013 x196 + 96686 x197 + 104249 x198
       + 102520 x199 + 92193 x200 + 108106 x201 + 100303 x202 + 92167 x203
       + 104162 x204 + 102576 x205 + 101638 x206 + 105343 x207 + 104805 x208
       + 91671 x209 + 103604 x210 + 94317 x211 + 107059 x212 + 93366 x213
       + 95563 x214 + 92320 x215 + 97547 x216 + 104675 x217 + 93115 x218
       + 98668 x219 + 99036 x220 + 100808 x221 + 96698 x222 + 107467 x223
       + 105963 x224 + 106095 x225 + 91910 x226 + 94390 x227 + 102361 x228
       + 105598 x229 + 96277 x230 + 92473 x231 + 106227 x232 + 100504 x233
       + 102227 x234 + 104890 x235 + 104705 x236 + 95312 x237 + 106657 x238
       + 100369 x239 + 90403 x240 + 100758 x241 + 98720 x242 + 109711 x243
       + 104804 x244 + 99570 x245 + 105482 x246 + 95164 x247 + 106987 x248
       + 102651 x249 + 90306 x250 + 105005 x251 + 100022 x252 + 97990 x253
       + 97727 x254 + 103119 x255 + 98430 x256 + 104929 x257 + 103827 x258
       + 94722 x259 + 91611 x260 + 96545 x261 + 109375 x262 + 108593 x263
       + 92111 x264 + 94752 x265 + 98726 x266 + 107274 x267 + 103101 x268
       + 98631 x269 + 94389 x270 + 104572 x271 + 97921 x272 + 103029 x273
       + 108244 x274 + 106556 x275 + 108491 x276 + 106718 x277 + 92151 x278
       + 104811 x279 + 103913 x280 + 97207 x281 + 103044 x282 + 98805 x283
       + 105786 x284 + 92780 x285 + 100603 x286 + 108039 x287 + 92556 x288
       + 101394 x289 + 109192 x290 + 94011 x291 + 91616 x292 + 100794 x293
       + 100018 x294 + 107063 x295 + 104990 x296 + 94533 x297 + 104297 x298
       + 103827 x299 + 80266 x300 + 20083 x301 + 20656 x302 + 19250 x303
       + 21245 x304 + 20109 x305 + 18538 x306 + 18469 x307 + 19155 x308
       + 18549 x309 + 19238 x310 + 20476 x311 + 19801 x312 + 19687 x313
       + 20538 x314 + 19469 x315 + 21581 x316 + 18226 x317 + 21907 x318
       + 20762 x319 + 21821 x320 + 21450 x321 + 19555 x322 + 18036 x323
       + 19535 x324 + 18893 x325 + 21017 x326 + 20616 x327 + 19989 x328
       + 19166 x329 + 19578 x330 + 20557 x331 + 18451 x332 + 19926 x333
       + 20371 x334 + 20323 x335 + 19285 x336 + 21693 x337 + 20947 x338
       + 21279 x339 + 18658 x340 + 19321 x341 + 19422 x342 + 20989 x343
       + 20650 x344 + 18406 x345 + 21002 x346 + 19476 x347 + 19418 x348
       + 19748 x349 + 18748 x350 + 19133 x351 + 20343 x352 + 21234 x353
       + 20899 x354 + 19884 x355 + 18682 x356 + 19061 x357 + 20856 x358
       + 20493 x359 + 23350 x360
Subject To
 c1:   x20 - x23 - x25 - x28 - x29 + x31 + x38 + x46 - x48 - x50 + x51 + x58
        = 0
 c2:   x80 - x83 - x85 - x88 - x89 + x91 + x98 + x106 - x108 - x110 + x111
       + x118  = 1
 c3:   x140 - x143 - x145 - x148 - x149 + x151 + x158 + x166 - x168 - x170
       + x171 + x178  = 0
 c4:   x200 - x203 - x205 - x208 - x209 + x211 + x218 + x226 - x228 - x230
       + x231 + x238  = 0
 c5:   x260 - x263 - x265 - x268 - x269 + x271 + x278 + x286 - x288 - x290
       + x291 + x298  = 0
 c6:   x2 - x3 - x7 - x15 - x17 + x19 + x21 + x22 - x36 - x41 + x50  = -1
 c7:   x62 - x63 - x67 - x75 - x77 + x79 + x81 + x82 - x96 - x101 + x110  = 0
 c8:   x122 - x123 - x127 - x135 - x137 + x139 + x141 + x142 - x156 - x161
       + x170  = 0
 c9:   x182 - x183 - x187 - x195 - x197 + x199 + x201 + x202 - x216 - x221
       + x230  = 0
 c10:  x242 - x243 - x247 - x255 - x257 + x259 + x261 + x262 - x276 - x281
       + x290  = 1
 c11:  x3 + x6 + x13 + x23 + x26 - x32 + x33 - x35 + x37 - x46 + x47 - x52
       - x53 - x54 - x55  = 0
 c12:  x63 + x66 + x73 + x83 + x86 - x92 + x93 - x95 + x97 - x106 + x107 - x112
       - x113 - x114 - x115  = 0
 c13:  x123 + x126 + x133 + x143 + x146 - x152 + x153 - x155 + x157 - x166
       + x167 - x172 - x173 - x174 - x175  = 0
 c14:  x183 + x186 + x193 + x203 + x206 - x212 + x213 - x215 + x217 - x226
       + x227 - x232 - x233 - x234 - x235  = 0
 c15:  x243 + x246 + x253 + x263 + x266 - x272 + x273 - x275 + x277 - x286
       + x287 - x292 - x293 - x294 - x295  = -1
 c16:  - x2 - x5 - x6 + x10 + x15 + x18 - x24 - x38 + x39 + x42 + x48 + x53
       + x59 - x60  = 0
 c17:  - x62 - x65 - x66 + x70 + x75 + x78 - x84 - x98 + x99 + x102 + x108
       + x113 + x119 - x120  = 0
 c18:  - x122 - x125 - x126 + x130 + x135 + x138 - x144 - x158 + x159 + x162
       + x168 + x173 + x179 - x180  = -1
 c19:  - x182 - x185 - x186 + x190 + x195 + x198 - x204 - x218 + x219 + x222
       + x228 + x233 + x239 - x240  = 0
 c20:  - x242 - x245 - x246 + x250 + x255 + x258 - x264 - x278 + x279 + x282
       + x288 + x293 + x299 - x300  = 0
 c21:  - x1 + x7 - x8 - x11 - x37 - x39 - x45 + x52 - x57  = 0
 c22:  - x61 + x67 - x68 - x71 - x97 - x99 - x105 + x112 - x117  = 0
 c23:  - x121 + x127 - x128 - x131 - x157 - x159 - x165 + x172 - x177  = 0
 c24:  - x181 + x187 - x188 - x191 - x217 - x219 - x225 + x232 - x237  = 0
 c25:  - x241 + x247 - x248 - x251 - x277 - x279 - x285 + x292 - x297  = 0
 c26:  x4 + x8 + x9 - x10 - x12 + x17 - x20 - x22 + x24 - x27 + x30 - x33 - x43
       + x56  = 0
 c27:  x64 + x68 + x69 - x70 - x72 + x77 - x80 - x82 + x84 - x87 + x90 - x93
       - x103 + x116  = 0
 c28:  x124 + x128 + x129 - x130 - x132 + x137 - x140 - x142 + x144 - x147
       + x150 - x153 - x163 + x176  = 0
 c29:  x184 + x188 + x189 - x190 - x192 + x197 - x200 - x202 + x204 - x207
       + x210 - x213 - x223 + x236  = -1
 c30:  x244 + x248 + x249 - x250 - x252 + x257 - x260 - x262 + x264 - x267
       + x270 - x273 - x283 + x296  = 0
 c31:  - x4 + x11 - x13 + x14 + x28 - x40 + x41 + x43 - x49 + x54 - x58 - x59
        = 0
 c32:  - x64 + x71 - x73 + x74 + x88 - x100 + x101 + x103 - x109 + x114 - x118
       - x119  = 0
 c33:  - x124 + x131 - x133 + x134 + x148 - x160 + x161 + x163 - x169 + x174
       - x178 - x179  = 1
 c34:  - x184 + x191 - x193 + x194 + x208 - x220 + x221 + x223 - x229 + x234
       - x238 - x239  = 0
 c35:  - x244 + x251 - x253 + x254 + x268 - x280 + x281 + x283 - x289 + x294
       - x298 - x299  = 0
 c36:  x5 + x12 - x14 + x16 - x21 - x31 + x32 - x34 - x42 + x44 + x49 - x56
       + x57  = 0
 c37:  x65 + x72 - x74 + x76 - x81 - x91 + x92 - x94 - x102 + x104 + x109
       - x116 + x117  = -1
 c38:  x125 + x132 - x134 + x136 - x141 - x151 + x152 - x154 - x162 + x164
       + x169 - x176 + x177  = 0
 c39:  x185 + x192 - x194 + x196 - x201 - x211 + x212 - x214 - x222 + x224
       + x229 - x236 + x237  = 0
 c40:  x245 + x252 - x254 + x256 - x261 - x271 + x272 - x274 - x282 + x284
       + x289 - x296 + x297  = 0
 c41:  x1 - x9 - x18 + x25 + x34 + x35 + x36 + x40 - x44 - x47 + x60  = 1
 c42:  x61 - x69 - x78 + x85 + x94 + x95 + x96 + x100 - x104 - x107 + x120  = 0
 c43:  x121 - x129 - x138 + x145 + x154 + x155 + x156 + x160 - x164 - x167
       + x180  = 0
 c44:  x181 - x189 - x198 + x205 + x214 + x215 + x216 + x220 - x224 - x227
       + x240  = 0
 c45:  x241 - x249 - x258 + x265 + x274 + x275 + x276 + x280 - x284 - x287
       + x300  = 0
 c46:  - x16 - x19 - x26 + x27 + x29 - x30 + x45 - x51 + x55  = 0
 c47:  - x76 - x79 - x86 + x87 + x89 - x90 + x105 - x111 + x115  = 0
 c48:  - x136 - x139 - x146 + x147 + x149 - x150 + x165 - x171 + x175  = 0
 c49:  - x196 - x199 - x206 + x207 + x209 - x210 + x225 - x231 + x235  = 1
 c50:  - x256 - x259 - x266 + x267 + x269 - x270 + x285 - x291 + x295  = 0
 c51:  4 x1 + 4 x61 + 4 x121 + 4 x181 + 4 x241 - 11 x301 <= 0
 c52:  4 x2 + 4 x62 + 4 x122 + 4 x182 + 4 x242 - 9 x302 <= 0
 c53:  4 x3 + 4 x63 + 4 x123 + 4 x183 + 4 x243 - 11 x303 <= 0
 c54:  4 x4 + 4 x64 + 4 x124 + 4 x184 + 4 x244 - 10 x304 <= 0
 c55:  4 x5 + 4 x65 + 4 x125 + 4 x185 + 4 x245 - 10 x305 <= 0
 c56:  4 x6 + 4 x66 + 4 x126 + 4 x186 + 4 x246 - 11 x306 <= 0
 c57:  4 x7 + 4 x67 + 4 x127 + 4 x187 + 4 x247 - 9 x307 <= 0
 c58:  4 x8 + 4 x68 + 4 x128 + 4 x188 + 4 x248 - 11 x308 <= 0
 c59:  4 x9 + 4 x69 + 4 x129 + 4 x189 + 4 x249 - 10 x309 <= 0
 c60:  4 x10 + 4 x70 + 4 x130 + 4 x190 + 4 x250 - 10 x310 <= 0
 c61:  4 x11 + 4 x71 + 4 x131 + 4 x191 + 4 x251 - 10 x311 <= 0
 c62:  4 x12 + 4 x72 + 4 x132 + 4 x192 + 4 x252 - 9 x312 <= 0
 c63:  4 x13 + 4 x73 + 4 x133 + 4 x193 + 4 x253 - 10 x313 <= 0
 c64:  4 x14 + 4 x74 + 4 x134 + 4 x194 + 4 x254 - 11 x314 <= 0
 c65:  4 x15 + 4 x75 + 4 x135 + 4 x195 + 4 x255 - 10 x315 <= 0
 c66:  4 x16 + 4 x76 + 4 x136 + 4 x196 + 4 x256 - 10 x316 <= 0
 c67:  4 x17 + 4 x77 + 4 x137 + 4 x197 + 4 x257 - 10 x317 <= 0
 c68:  4 x18 + 4 x78 + 4 x138 + 4 x198 + 4 x258 - 11 x318 <= 0
 c69:  4 x19 + 4 x79 + 4 x139 + 4 x199 + 4 x259 - 10 x319 <= 0
 c70:  4 x20 + 4 x80 + 4 x140 + 4 x200 + 4 x260 - 10 x320 <= 0
 c71:  4 x21 + 4 x81 + 4 x141 + 4 x201 + 4 x261 - 9 x321 <= 0
 c72:  4 x22 + 4 x82 + 4 x142 + 4 x202 + 4 x262 - 10 x322 <= 0
 c73:  4 x23 + 4 x83 + 4 x143 + 4 x203 + 4 x263 - 10 x323 <= 0
 c74:  4 x24 + 4 x84 + 4 x144 + 4 x204 + 4 x264 - 10 x324 <= 0
 c75:  4 x25 + 4 x85 + 4 x145 + 4 x205 + 4 x265 - 9 x325 <= 0
 c76:  4 x26 + 4 x86 + 4 x146 + 4 x206 + 4 x266 - 10 x326 <= 0
 c77:  4 x27 + 4 x87 + 4 x147 + 4 x207 + 4 x267 - 10 x327 <= 0
 c78:  4 x28 + 4 x88 + 4 x148 + 4 x208 + 4 x268 - 9 x328 <= 0
 c79:  4 x29 + 4 x89 + 4 x149 + 4 x209 + 4 x269 - 9 x329 <= 0
 c80:  4 x30 + 4 x90 + 4 x150 + 4 x210 + 4 x270 - 9 x330 <= 0
 c81:  4 x31 + 4 x91 + 4 x151 + 4 x211 + 4 x271 - 11 x331 <= 0
 c82:  4 x32 + 4 x92 + 4 x152 + 4 x212 + 4 x272 - 11 x332 <= 0
 c83:  4 x33 + 4 x93 + 4 x153 + 4 x213 + 4 x273 - 10 x333 <= 0
 c84:  4 x34 + 4 x94 + 4 x154 + 4 x214 + 4 x274 - 9 x334 <= 0
 c85:  4 x35 + 4 x95 + 4 x155 + 4 x215 + 4 x275 - 11 x335 <= 0
 c86:  4 x36 + 4 x96 + 4 x156 + 4 x216 + 4 x276 - 10 x336 <= 0
 c87:  4 x37 + 4 x97 + 4 x157 + 4 x217 + 4 x277 - 10 x337 <= 0
 c88:  4 x38 + 4 x98 + 4 x158 + 4 x218 + 4 x278 - 10 x338 <= 0
 c89:  4 x39 + 4 x99 + 4 x159 + 4 x219 + 4 x279 - 10 x339 <= 0
 c90:  4 x40 + 4 x100 + 4 x160 + 4 x220 + 4 x280 - 9 x340 <= 0
 c91:  4 x41 + 4 x101 + 4 x161 + 4 x221 + 4 x281 - 9 x341 <= 0
 c92:  4 x42 + 4 x102 + 4 x162 + 4 x222 + 4 x282 - 10 x342 <= 0
 c93:  4 x43 + 4 x103 + 4 x163 + 4 x223 + 4 x283 - 10 x343 <= 0
 c94:  4 x44 + 4 x104 + 4 x164 + 4 x224 + 4 x284 - 11 x344 <= 0
 c95:  4 x45 + 4 x105 + 4 x165 + 4 x225 + 4 x285 - 9 x345 <= 0
 c96:  4 x46 + 4 x106 + 4 x166 + 4 x226 + 4 x286 - 10 x346 <= 0
 c97:  4 x47 + 4 x107 + 4 x167 + 4 x227 + 4 x287 - 10 x347 <= 0
 c98:  4 x48 + 4 x108 + 4 x168 + 4 x228 + 4 x288 - 11 x348 <= 0
 c99:  4 x49 + 4 x109 + 4 x169 + 4 x229 + 4 x289 - 10 x349 <= 0
 c100: 4 x50 + 4 x110 + 4 x170 + 4 x230 + 4 x290 - 10 x350 <= 0
 c101: 4 x51 + 4 x111 + 4 x171 + 4 x231 + 4 x291 - 9 x351 <= 0
 c102: 4 x52 + 4 x112 + 4 x172 + 4 x232 + 4 x292 - 11 x352 <= 0
 c103: 4 x53 + 4 x113 + 4 x173 + 4 x233 + 4 x293 - 10 x353 <= 0
 c104: 4 x54 + 4 x114 + 4 x174 + 4 x234 + 4 x294 - 10 x354 <= 0
 c105: 4 x55 + 4 x115 + 4 x175 + 4 x235 + 4 x295 - 9 x355 <= 0
 c106: 4 x56 + 4 x116 + 4 x176 + 4 x236 + 4 x296 - 10 x356 <= 0
 c107: 4 x57 + 4 x117 + 4 x177 + 4 x237 + 4 x297 - 10 x357 <= 0
 c108: 4 x58 + 4 x118 + 4 x178 + 4 x238 + 4 x298 - 10 x358 <= 0
 c109: 4 x59 + 4 x119 + 4 x179 + 4 x239 + 4 x299 - 10 x359 <= 0
 c110: 4 x60 + 4 x120 + 4 x180 + 4 x240 + 4 x300 - 12 x360 <= 0
Bounds
 0 <= x1 <= 1
 0 <= x2 <= 1
 0 <= x3 <= 1
 0 <= x4 <= 1
 0 <= x5 <= 1
 0 <= x6 <= 1
 0 <= x7 <= 1
 0 <= x8 <= 1
 0 <= x9 <= 1
 0 <= x10 <= 1
 0 <= x11 <= 1
 0 <= x12 <= 1
 0 <= x13 <= 1
 0 <= x14 <= 1
 0 <= x15 <= 1
 0 <= x16 <= 1
 0 <= x17 <= 1
 0 <= x18 <= 1
 0 <= x19 <= 1
 0 <= x20 <= 1
 0 <= x21 <= 1
 0 <= x22 <= 1
 0 <= x23 <= 1
 0 <= x24 <= 1
 0 <= x25 <= 1
 0 <= x26 <= 1
 0 <= x27 <= 1
 0 <= x28 <= 1
 0 <= x29 <= 1
 0 <= x30 <= 1
 0 <= x31 <= 1
 0 <= x32 <= 1
 0 <= x33 <= 1
 0 <= x34 <= 1
 0 <= x35 <= 1
 0 <= x36 <= 1
 0 <= x37 <= 1
 0 <= x38 <= 1
 0 <= x39 <= 1
 0 <= x40 <= 1
 0 <= x41 <= 1
 0 <= x42 <= 1
 0 <= x43 <= 1
 0 <= x44 <= 1
 0 <= x45 <= 1
 0 <= x46 <= 1
 0 <= x47 <= 1
 0 <= x48 <= 1
 0 <= x49 <= 1
 0 <= x50 <= 1
 0 <= x51 <= 1
 0 <= x52 <= 1
 0 <= x53 <= 1
 0 <= x54 <= 1
 0 <= x55 <= 1
 0 <= x56 <= 1
 0 <= x57 <= 1
 0 <= x58 <= 1
 0 <= x59 <= 1
 0 <= x60 <= 1
 0 <= x61 <= 1
 0 <= x62 <= 1
 0 <= x63 <= 1
 0 <= x64 <= 1
 0 <= x65 <= 1
 0 <= x66 <= 1
 0 <= x67 <= 1
 0 <= x68 <= 1
 0 <= x69 <= 1
 0 <= x70 <= 1
 0 <= x71 <= 1
 0 <= x72 <= 1
 0 <= x73 <= 1
 0 <= x74 <= 1
 0 <= x75 <= 1
 0 <= x76 <= 1
 0 <= x77 <= 1
 0 <= x78 <= 1
 0 <= x79 <= 1
 0 <= x80 <= 1
 0 <= x81 <= 1
 0 <= x82 <= 1
 0 <= x83 <= 1
 0 <= x84 <= 1
 0 <= x85 <= 1
 0 <= x86 <= 1
 0 <= x87 <= 1
 0 <= x88 <= 1
 0 <= x89 <= 1
 0 <= x90 <= 1
 0 <= x91 <= 1
 0 <= x92 <= 1
 0 <= x93 <= 1
 0 <= x94 <= 1
 0 <= x95 <= 1
 0 <= x96 <= 1
 0 <= x97 <= 1
 0 <= x98 <= 1
 0 <= x99 <= 1
 0 <= x100 <= 1
 0 <= x101 <= 1
 0 <= x102 <= 1
 0 <= x103 <= 1
 0 <= x104 <= 1
 0 <= x105 <= 1
 0 <= x106 <= 1
 0 <= x107 <= 1
 0 <= x108 <= 1
 0 <= x109 <= 1
 0 <= x110 <= 1
 0 <= x111 <= 1
 0 <= x112 <= 1
 0 <= x113 <= 1
 0 <= x114 <= 1
 0 <= x115 <= 1
 0 <= x116 <= 1
 0 <= x117 <= 1
 0 <= x118 <= 1
 0 <= x119 <= 1
 0 <= x120 <= 1
 0 <= x121 <= 1
 0 <= x122 <= 1
 0 <= x123 <= 1
 0 <= x124 <= 1
 0 <= x125 <= 1
 0 <= x126 <= 1
 0 <= x127 <= 1
 0 <= x128 <= 1
 0 <= x129 <= 1
 0 <= x130 <= 1
 0 <= x131 <= 1
 0 <= x132 <= 1
 0 <= x133 <= 1
 0 <= x134 <= 1
 0 <= x135 <= 1
 0 <= x136 <= 1
 0 <= x137 <= 1
 0 <= x138 <= 1
 0 <= x139 <= 1
 0 <= x140 <= 1
 0 <= x141 <= 1
 0 <= x142 <= 1
 0 <= x143 <= 1
 0 <= x144 <= 1
 0 <= x145 <= 1
 0 <= x146 <= 1
 0 <= x147 <= 1
 0 <= x148 <= 1
 0 <= x149 <= 1
 0 <= x150 <= 1
 0 <= x151 <= 1
 0 <= x152 <= 1
 0 <= x153 <= 1
 0 <= x154 <= 1
 0 <= x155 <= 1
 0 <= x156 <= 1
 0 <= x157 <= 1
 0 <= x158 <= 1
 0 <= x159 <= 1
 0 <= x160 <= 1
 0 <= x161 <= 1
 0 <= x162 <= 1
 0 <= x163 <= 1
 0 <= x164 <= 1
 0 <= x165 <= 1
 0 <= x166 <= 1
 0 <= x167 <= 1
 0 <= x168 <= 1
 0 <= x169 <= 1
 0 <= x170 <= 1
 0 <= x171 <= 1
 0 <= x172 <= 1
 0 <= x173 <= 1
 0 <= x174 <= 1
 0 <= x175 <= 1
 0 <= x176 <= 1
 0 <= x177 <= 1
 0 <= x178 <= 1
 0 <= x179 <= 1
 0 <= x180 <= 1
 0 <= x181 <= 1
 0 <= x182 <= 1
 0 <= x183 <= 1
 0 <= x184 <= 1
 0 <= x185 <= 1
 0 <= x186 <= 1
 0 <= x187 <= 1
 0 <= x188 <= 1
 0 <= x189 <= 1
 0 <= x190 <= 1
 0 <= x191 <= 1
 0 <= x192 <= 1
 0 <= x193 <= 1
 0 <= x194 <= 1
 0 <= x195 <= 1
 0 <= x196 <= 1
 0 <= x197 <= 1
 0 <= x198 <= 1
 0 <= x199 <= 1
 0 <= x200 <= 1
 0 <= x201 <= 1
 0 <= x202 <= 1
 0 <= x203 <= 1
 0 <= x204 <= 1
 0 <= x205 <= 1
 0 <= x206 <= 1
 0 <= x207 <= 1
 0 <= x208 <= 1
 0 <= x209 <= 1
 0 <= x210 <= 1
 0 <= x211 <= 1
 0 <= x212 <= 1
 0 <= x213 <= 1
 0 <= x214 <= 1
 0 <= x215 <= 1
 0 <= x216 <= 1
 0 <= x217 <= 1
 0 <= x218 <= 1
 0 <= x219 <= 1
 0 <= x220 <= 1
 0 <= x221 <= 1
 0 <= x222 <= 1
 0 <= x223 <= 1
 0 <= x224 <= 1
 0 <= x225 <= 1
 0 <= x226 <= 1
 0 <= x227 <= 1
 0 <= x228 <= 1
 0 <= x229 <= 1
 0 <= x230 <= 1
 0 <= x231 <= 1
 0 <= x232 <= 1
 0 <= x233 <= 1
 0 <= x234 <= 1
 0 <= x235 <= 1
 0 <= x236 <= 1
 0 <= x237 <= 1
 0 <= x238 <= 1
 0 <= x239 <= 1
 0 <= x240 <= 1
 0 <= x241 <= 1
 0 <= x242 <= 1
 0 <= x243 <= 1
 0 <= x244 <= 1
 0 <= x245 <= 1
 0 <= x246 <= 1
 0 <= x247 <= 1
 0 <= x248 <= 1
 0 <= x249 <= 1
 0 <= x250 <= 1
 0 <= x251 <= 1
 0 <= x252 <= 1
 0 <= x253 <= 1
 0 <= x254 <= 1
 0 <= x255 <= 1
 0 <= x256 <= 1
 0 <= x257 <= 1
 0 <= x258 <= 1
 0 <= x259 <= 1
 0 <= x260 <= 1
 0 <= x261 <= 1
 0 <= x262 <= 1
 0 <= x263 <= 1
 0 <= x264 <= 1
 0 <= x265 <= 1
 0 <= x266 <= 1
 0 <= x267 <= 1
 0 <= x268 <= 1
 0 <= x269 <= 1
 0 <= x270 <= 1
 0 <= x271 <= 1
 0 <= x272 <= 1
 0 <= x273 <= 1
 0 <= x274 <= 1
 0 <= x275 <= 1
 0 <= x276 <= 1
 0 <= x277 <= 1
 0 <= x278 <= 1
 0 <= x279 <= 1
 0 <= x280 <= 1
 0 <= x281 <= 1
 0 <= x282 <= 1
 0 <= x283 <= 1
 0 <= x284 <= 1
 0 <= x285 <= 1
 0 <= x286 <= 1
 0 <= x287 <= 1
 0 <= x288 <= 1
 0 <= x289 <= 1
 0 <= x290 <= 1
 0 <= x291 <= 1
 0 <= x292 <= 1
 0 <= x293 <= 1
 0 <= x294 <= 1
 0 <= x295 <= 1
 0 <= x296 <= 1
 0 <= x297 <= 1
 0 <= x298 <= 1
 0 <= x299 <= 1
 0 <= x300 <= 1
 0 <= x301 <= 1
 0 <= x302 <= 1
 0 <= x303 <= 1
 0 <= x304 <= 1
 0 <= x305 <= 1
 0 <= x306 <= 1
 0 <= x307 <= 1
 0 <= x308 <= 1
 0 <= x309 <= 1
 0 <= x310 <= 1
 0 <= x311 <= 1
 0 <= x312 <= 1
 0 <= x313 <= 1
 0 <= x314 <= 1
 0 <= x315 <= 1
 0 <= x316 <= 1
 0 <= x317 <= 1
 0 <= x318 <= 1
 0 <= x319 <= 1
 0 <= x320 <= 1
 0 <= x321 <= 1
 0 <= x322 <= 1
 0 <= x323 <= 1
 0 <= x324 <= 1
 0 <= x325 <= 1
 0 <= x326 <= 1
 0 <= x327 <= 1
 0 <= x328 <= 1
 0 <= x329 <= 1
 0 <= x330 <= 1
 0 <= x331 <= 1
 0 <= x332 <= 1
 0 <= x333 <= 1
 0 <= x334 <= 1
 0 <= x335 <= 1
 0 <= x336 <= 1
 0 <= x337 <= 1
 0 <= x338 <= 1
 0 <= x339 <= 1
 0 <= x340 <= 1
 0 <= x341 <= 1
 0 <= x342 <= 1
 0 <= x343 <= 1
 0 <= x344 <= 1
 0 <= x345 <= 1
 0 <= x346 <= 1
 0 <= x347 <= 1
 0 <= x348 <= 1
 0 <= x349 <= 1
 0 <= x350 <= 1
 0 <= x351 <= 1
 0 <= x352 <= 1
 0 <= x353 <= 1
 0 <= x354 <= 1
 0 <= x355 <= 1
 0 <= x356 <= 1
 0 <= x357 <= 1
 0 <= x358 <= 1
 0 <= x359 <= 1
 0 <= x360 <= 1
Binaries
 x301  x302  x303  x304  x305  x306  x307  x308  x309  x310  x311  x312  x313 
 x314  x315  x316  x317  x318  x319  x320  x321  x322  x323  x324  x325  x326 
 x327  x328  x329  x330  x331  x332  x333  x334  x335  x336  x337  x338  x339 
 x340  x341  x342  x343  x344  x345  x346  x347  x348  x349  x350  x351  x352 
 x353  x354  x355  x356  x357  x358  x359  x360 
End
